language ESSENCE' 1.0
letting values be [[2, 0, 0, 5, 9, 0, 1, 4, 0], [1, 7, 4, 0, 0, 8, 6, 0, 5], [0, 0, 0, 0, 0, 4, 7, 2, 3], [4, 1, 0, 0, 0, 0, 0, 6, 7], [3, 9, 8, 7, 0, 6, 5, 0, 0], [7, 0, 5, 4, 0, 0, 3, 0, 0], [0, 2, 0, 0, 4, 3, 8, 0, 6], [6, 4, 3, 0, 0, 1, 2, 0, 9], [0, 8, 7, 0, 5, 0, 4, 3, 0]]